; Options: -in -smt2
(set-option :produce-unsat-assumptions true)

(declare-fun start!2821 () Bool)

(assert start!2821)

(declare-fun b!15727 () Bool)

(declare-fun res!12286 () Bool)

(declare-fun e!8772 () Bool)

(assert (=> b!15727 (=> (not res!12286) (not e!8772))))

(declare-datatypes ((array!1258 0))(
  ( (array!1259 (arr!553 (Array (_ BitVec 32) (_ BitVec 32))) (size!553 (_ BitVec 32))) )
))
(declare-fun iq!146 () array!1258)

(declare-fun iqInv!0 (array!1258) Bool)

(assert (=> b!15727 (= res!12286 (iqInv!0 iq!146))))

(declare-fun res!12287 () Bool)

(assert (=> start!2821 (=> (not res!12287) (not e!8772))))

(declare-fun jz!49 () (_ BitVec 32))

(assert (=> start!2821 (= res!12287 (and (bvsle #b00000000000000000000000000000010 jz!49) (bvslt jz!49 #b00000000000000000000000000010011)))))

(assert (=> start!2821 e!8772))

(assert (=> start!2821 true))

(declare-fun array_inv!501 (array!1258) Bool)

(assert (=> start!2821 (array_inv!501 iq!146)))

(declare-datatypes ((array!1260 0))(
  ( (array!1261 (arr!554 (Array (_ BitVec 32) (_ FloatingPoint 11 53))) (size!554 (_ BitVec 32))) )
))
(declare-fun q!79 () array!1260)

(declare-fun array_inv!502 (array!1260) Bool)

(assert (=> start!2821 (array_inv!502 q!79)))

(declare-fun b!15726 () Bool)

(declare-fun res!12288 () Bool)

(assert (=> b!15726 (=> (not res!12288) (not e!8772))))

(declare-fun z!100 () (_ FloatingPoint 11 53))

(declare-fun j!78 () (_ BitVec 32))

(assert (=> b!15726 (= res!12288 (and (bvsle #b00000000000000000000000000000000 j!78) (bvsle j!78 jz!49) (fp.leq (fp #b0 #b00000000000 #b0000000000000000000000000000000000000000000000000000) z!100) (fp.leq z!100 (fp #b0 #b10000110001 #b0100000000000000000000010011111111111111111111111100))))))

(declare-fun b!15725 () Bool)

(declare-fun res!12285 () Bool)

(assert (=> b!15725 (=> (not res!12285) (not e!8772))))

(declare-fun qInv!0 (array!1260) Bool)

(assert (=> b!15725 (= res!12285 (qInv!0 q!79))))

(declare-fun b!15728 () Bool)

(assert (=> b!15728 (= e!8772 (and (bvsgt j!78 #b00000000000000000000000000000000) (let ((expr!19 (fp.sub roundNearestTiesToEven z!100 (fp.mul roundNearestTiesToEven (fp #b0 #b10000010111 #b0000000000000000000000000000000000000000000000000000) ((_ to_fp 11 53) roundNearestTiesToEven (ite (fp.isNaN (fp.mul roundNearestTiesToEven (fp #b0 #b01111100111 #b0000000000000000000000000000000000000000000000000000) z!100)) #b00000000000000000000000000000000 (ite (fp.gt (fp.mul roundNearestTiesToEven (fp #b0 #b01111100111 #b0000000000000000000000000000000000000000000000000000) z!100) ((_ to_fp 11 53) roundTowardZero #b01111111111111111111111111111111)) #b01111111111111111111111111111111 (ite (fp.lt (fp.mul roundNearestTiesToEven (fp #b0 #b01111100111 #b0000000000000000000000000000000000000000000000000000) z!100) ((_ to_fp 11 53) roundTowardZero #b10000000000000000000000000000000)) #b10000000000000000000000000000000 ((_ fp.to_sbv 32) roundTowardZero (fp.mul roundNearestTiesToEven (fp #b0 #b01111100111 #b0000000000000000000000000000000000000000000000000000) z!100)))))))))) (and (not (fp.isNaN expr!19)) (fp.gt expr!19 ((_ to_fp 11 53) roundTowardNegative #b101111111111111111111111111111111)) (not (fp.lt expr!19 ((_ to_fp 11 53) roundTowardPositive #b010000000000000000000000000000000)))))))))

(assert (= (and start!2821 res!12287) b!15725))

(assert (= (and b!15725 res!12285) b!15726))

(assert (= (and b!15726 res!12288) b!15727))

(assert (= (and b!15727 res!12286) b!15728))

(declare-fun m!23827 () Bool)

(assert (=> b!15727 m!23827))

(declare-fun m!23829 () Bool)

(assert (=> start!2821 m!23829))

(declare-fun m!23831 () Bool)

(assert (=> start!2821 m!23831))

(declare-fun m!23833 () Bool)

(assert (=> b!15725 m!23833))

(check-sat (not b!15725) (not start!2821) (not b!15727))
(check-sat)
